5 5
1 57 2 29 0 1 4 82 3 59
1 64 0 86 2 72 3 71 4 89
3 94 1 98 4 44 0 48 2 75
2 15 3 35 0 23 4 53 1 45
1 85 3 92 4 13 0 34 2 38
-1
0 3 4 5
0 1 2 4 5
0 2 5
0 2 4 5
0 2 4 5
-2
101 182 331
69 237 357 525
272 573
63 139 202
247 259 293

505 6
17 6 23 2 13
5 20 11 0 19
15 7 1 24 14
16 10 21 8 4
18 22 12 3 9
